
  23    0


   0  13 2 3 4 5 6 8 9 10 11 12 13 21 22 
   5   5 20 17 16 15 14 
   2   2 15 7 
   3   2 18 14 
   4   2 19 14 
   4   2 16 14 
   7   1 14 
   8   1 18 
   6   1 17 
   5   1 16 
   8   1 15 
   3   1 15 
  10   1 14 
   9   1 23
   6   1 23
  10   1 23
   8   1 23
   4   1 23
   2   1 23
   5   1 23
   3   1 23
   4   1 23
   0   0 
